c User generated cnf file
p cnf 15 41
2 6 -1 0 
-14 15 3 0 
1 1 -3 0 
5 8 -15 0 
-4 13 15 0 
-13 1 9 0 
4 8 -15 0 
9 -11 14 0 
8 7 -8 0 
1 -12 3 0 
3 -11 5 0 
-7 4 4 0 
13 -3 2 0 
-2 15 9 0 
14 -12 2 0 
8 -13 4 0 
3 -15 11 0 
5 2 -9 0 
3 1 -3 0 
-4 9 15 0 
9 -3 6 0 
3 -10 5 0 
-9 7 15 0 
2 10 -9 0 
14 4 -5 0 
4 -9 13 0 
1 11 -13 0 
1 -6 3 0 
7 3 -10 0 
5 14 -9 0 
-2 1 4 0 
-15 5 11 0 
15 -9 15 0 
9 -7 8 0 
14 -4 14 0 
6 13 -8 0 
1 3 -15 0 
15 15 -13 0 
6 14 -13 0 
-7 12 1 0 
-15 13 13 0 
